p edge 87
e 0 18
e 0 34
e 0 81
e 1 9
e 1 12
e 1 25
e 1 40
e 1 56
e 1 73
e 1 75
e 2 12
e 2 16
e 2 33
e 2 56
e 2 58
e 2 59
e 2 80
e 2 83
e 3 8
e 3 15
e 3 19
e 3 37
e 3 74
e 3 82
e 4 23
e 4 24
e 5 8
e 5 10
e 5 15
e 5 21
e 5 37
e 5 77
e 6 42
e 6 53
e 6 61
e 6 62
e 6 65
e 7 34
e 7 48
e 7 57
e 7 67
e 7 69
e 7 81
e 8 15
e 8 37
e 9 17
e 9 25
e 9 73
e 10 21
e 10 52
e 10 77
e 10 85
e 11 20
e 11 21
e 11 33
e 11 52
e 12 56
e 12 59
e 12 75
e 13 43
e 13 44
e 13 47
e 13 78
e 13 80
e 14 65
e 14 79
e 14 82
e 15 77
e 16 33
e 16 52
e 16 58
e 17 25
e 17 30
e 17 45
e 18 26
e 18 35
e 18 48
e 18 54
e 18 81
e 19 22
e 19 42
e 19 61
e 19 68
e 19 74
e 19 82
e 20 21
e 20 33
e 20 40
e 20 56
e 20 63
e 20 66
e 20 72
e 20 84
e 21 37
e 21 52
e 21 72
e 22 39
e 22 46
e 22 64
e 22 68
e 22 74
e 23 28
e 23 58
e 23 70
e 23 83
e 25 30
e 25 40
e 26 35
e 26 41
e 26 54
e 26 66
e 27 32
e 27 46
e 27 62
e 27 68
e 28 29
e 28 58
e 29 58
e 29 77
e 29 85
e 30 41
e 30 45
e 30 63
e 31 51
e 31 78
e 32 46
e 32 60
e 32 71
e 33 52
e 33 56
e 34 67
e 34 81
e 35 38
e 35 39
e 35 48
e 35 55
e 35 64
e 35 66
e 35 84
e 36 44
e 36 47
e 36 75
e 36 76
e 37 50
e 37 72
e 37 74
e 38 39
e 38 46
e 38 48
e 38 69
e 38 71
e 39 46
e 39 64
e 40 56
e 40 63
e 41 45
e 41 54
e 41 63
e 41 66
e 42 61
e 42 62
e 42 68
e 43 47
e 44 47
e 44 59
e 44 75
e 44 80
e 45 54
e 46 68
e 46 71
e 47 76
e 47 78
e 48 69
e 48 81
e 49 53
e 49 79
e 50 55
e 50 64
e 50 72
e 50 74
e 51 78
e 51 80
e 51 86
e 52 58
e 52 85
e 53 65
e 53 79
e 55 64
e 55 72
e 55 84
e 57 60
e 57 67
e 57 69
e 58 83
e 58 85
e 59 75
e 59 80
e 60 69
e 60 71
e 61 65
e 61 82
e 62 68
e 63 66
e 64 74
e 65 79
e 65 82
e 66 84
e 69 71
e 70 80
e 70 83
e 70 86
e 72 84
e 73 75
e 73 76
e 75 76
e 78 80
e 80 83
e 80 86
c k 8
